File : Instances/p63
Used 68s
26015

0 0 1 0 1 0 1 0 0 0 0 0 0 1 1 0 0 1 1 0 0 0 0 1 1 1 0 0 1 0 
18 6 2 24 2 6 2 28 18 28 4 28 13 23 28 18 13 14 18 24 18 24 23 24 23 18 24 14 4 2 6 4 4 24 28 6 14 13 24 2 18 14 6 4 13 4 13 2 14 14 24 24 24 24 13 6 25 14 18 25 4 17 25 13 13 25 23 14 28 25 18 6 6 14 23 23 13 23 13 24 23 17 14 25 4 23 4 23 24 25 28 6 25 25 2 13 28 6 17 28 28 2 25 18 4 24 4 24 18 13 14 4 18 6 6 13 28 25 17 13 14 25 17 6 4 24 2 28 4 17 28 24 25 14 23 14 13 13 28 14 6 18 28 25 25 2 24 2 18 25 24 17 23 17 13 28 2 2 13 13 13 28 23 24 23 28 23 4 13 2 23 14 28 14 4 2 17 14 4 14 2 2 2 6 6 13 28 23 17 24 2 2 6 4 25 6 25 2 17 6 
